14526
0 1 1 0 1 1 0 1 1 1 1 1 0 1 1 0 1 0 1 0 1 1 1 0 1 1 0 0 1 0
21 10 7 7 8 8 13 18 21 1 20 13 24 22 5 14 16 8 21 5 14 8 8 16 5 24 16 8 5 2 2 2 11 9 4 21 28 24 4 25 4 13 10 9 4 24 20 9 5 13 10 13 16 7 9 10 28 9 5 25 10 13 8 7 9 4 2 11 10 1 8 11 18 9 14 24 7 16 7 7 11 13 10 10 4 14 10 24 21 5 4 13 18 10 4 14 8 24 25 5 4 24 22 10 4 24 20 9 5 5 22 20 8 7 9 10 8 8 25 5 7 14 16 7 9 22 20 16 13 5 22 13 8 7 7 22 20 9 7 11 8 13 18 7 4 22 20 8 25 25